# GRAPH TC03 - Easy: 5 nodes, tree (no cycles)
# BFS vs DFS behavior rõ ràng trên cây
# Expected optimal: 0→2→4, cost=6.0
# Complexity: EASY
5
0 4
3 7
3 1
7 7
7 1
0 1 3.0
0 2 4.0
1 3 5.0
1 4 8.0
2 3 3.0
2 4 2.0
0 4
