# GRAPH TC05 - Easy: 8 nodes, classic textbook graph
# Test case chuẩn từ sách giáo khoa - tất cả algorithms
# Expected optimal: 0→1→4→6→7, cost=6.0
# Complexity: EASY
8
0 3
2 5
2 1
4 6
4 3
4 0
6 5
8 3
0 1 2.0
0 2 5.0
1 3 4.0
1 4 1.0
2 4 3.0
2 5 6.0
3 6 3.0
4 6 2.0
4 7 5.0
5 7 4.0
6 7 1.0
0 7
