# GRAPH TC06 - Medium: 10 nodes, multiple equally-optimal paths
# Kiểm tra tiebreaking và exploration order
# UCS vs A* vs Greedy có thể chọn path khác nhau
# Complexity: MEDIUM
10
0 5
2 8
2 2
5 9
5 5
5 1
8 8
8 4
8 0
10 4
0 1 3.0
0 2 3.0
1 3 2.5
1 4 4.0
2 4 4.0
2 5 2.5
3 6 3.0
4 6 2.0
4 7 2.0
5 7 3.0
5 8 3.5
6 9 4.0
7 9 2.5
8 9 4.5
0 9
