# GRAPH TC07 - Medium: 12 nodes, dense graph
# Heuristic misleading case: Greedy bị dẫn sai, A* tìm đúng optimal
# Expected optimal: 0→3→7→11, cost=9.0
# Complexity: MEDIUM
12
0 6
2 9
2 3
4 7
4 5
6 9
6 6
6 3
8 8
8 4
10 7
12 5
0 1 3.5
0 2 2.0
0 3 4.5
1 4 4.0
1 5 5.5
2 4 6.0
2 5 3.0
3 6 2.0
3 7 2.0
4 8 3.0
5 8 4.5
5 9 3.5
6 10 4.0
7 10 3.0
7 11 2.5
8 11 5.0
9 10 2.5
9 11 4.0
10 11 3.5
0 11
